p cnf 65 172
1 -43 -39 0
-1 43 -39 0
1 43 -40 0
-1 -43 -40 0
20 -43 -41 0
-20 43 -41 0
20 43 -42 0
-20 -43 -42 0
2 -39 0
2 -40 0
39 -39 0
40 -40 0
21 -41 0
21 -42 0
41 -41 0
42 -42 0
3 -44 -39 0
-3 44 -39 0
3 44 -40 0
-3 -44 -40 0
22 -44 -41 0
-22 44 -41 0
22 44 -42 0
-22 -44 -42 0
4 -45 -39 0
-4 45 -39 0
4 45 -40 0
-4 -45 -40 0
23 -45 -41 0
-23 45 -41 0
23 45 -42 0
-23 -45 -42 0
5 -39 0
5 -40 0
39 -39 0
40 -40 0
24 -41 0
24 -42 0
41 -41 0
42 -42 0
6 -39 0
6 -40 0
39 -39 0
40 -40 0
25 -41 0
25 -42 0
41 -41 0
42 -42 0
7 -46 -39 0
-7 46 -39 0
7 46 -40 0
-7 -46 -40 0
26 -46 -41 0
-26 46 -41 0
26 46 -42 0
-26 -46 -42 0
8 -39 0
8 -40 0
39 -39 0
40 -40 0
27 -41 0
27 -42 0
41 -41 0
42 -42 0
9 -39 0
9 -40 0
39 -39 0
40 -40 0
28 -41 0
28 -42 0
41 -41 0
42 -42 0
10 -39 0
10 -40 0
39 -39 0
40 -40 0
29 -41 0
29 -42 0
41 -41 0
42 -42 0
11 -39 0
11 -40 0
39 -39 0
40 -40 0
30 -41 0
30 -42 0
41 -41 0
42 -42 0
-12 -39 0
-12 -40 0
39 -39 0
40 -40 0
-31 -41 0
-31 -42 0
41 -41 0
42 -42 0
13 -47 -39 0
-13 47 -39 0
13 47 -40 0
-13 -47 -40 0
32 -47 -41 0
-32 47 -41 0
32 47 -42 0
-32 -47 -42 0
14 -48 -39 0
-14 48 -39 0
14 48 -40 0
-14 -48 -40 0
33 -48 -41 0
-33 48 -41 0
33 48 -42 0
-33 -48 -42 0
15 -49 -39 0
-15 49 -39 0
15 49 -40 0
-15 -49 -40 0
34 -49 -41 0
-34 49 -41 0
34 49 -42 0
-34 -49 -42 0
16 -39 0
16 -40 0
39 -39 0
40 -40 0
35 -41 0
35 -42 0
41 -41 0
42 -42 0
17 -39 0
17 -40 0
39 -39 0
40 -40 0
36 -41 0
36 -42 0
41 -41 0
42 -42 0
18 -39 0
18 -40 0
39 -39 0
40 -40 0
37 -41 0
37 -42 0
41 -41 0
42 -42 0
19 -50 -39 0
-19 50 -39 0
19 50 -40 0
-19 -50 -40 0
38 -50 -41 0
-38 50 -41 0
38 50 -42 0
-38 -50 -42 0
-62 39 0
62 -39 0
-63 40 0
62 -40 0
-62 -39 0
-63 -40 0
-64 39 62 0
64 -39 0
64 -62 0
-65 40 63 0
65 -40 0
65 -63 0
-64 -41 0
-65 -42 0
64 0
65 0
-39 42 0
-40 0
-41 0
-42 39 0
